DIMENSION: 202
1
2
3
16
14
13
7
8
4
5
6
9
10
12
11
18
17
19
21
20
26
27
28
29
22
23
24
137
129
127
128
37
38
39
130
131
120
123
119
104
99
107
108
109
110
111
106
46
41
42
36
40
118
103
105
43
44
45
47
48
49
50
95
96
100
112
114
101
102
117
115
116
113
122
125
167
133
132
126
124
121
138
139
140
141
185
184
134
135
170
169
164
165
160
163
159
156
88
94
98
97
93
92
87
86
83
84
85
67
66
65
63
64
72
71
69
70
73
51
30
31
32
33
34
53
52
55
54
56
57
60
61
58
59
62
35
15
142
25
143
144
145
147
148
149
150
151
152
153
154
155
146
186
136
171
173
174
172
176
175
188
190
192
191
198
193
194
180
181
182
183
195
196
179
178
177
189
187
197
199
200
201
202
166
161
162
158
157
91
90
89
81
80
82
79
77
78
168
68
74
75
76
